\ This file has been generated by DOcplex
\ ENCODING=ISO-8859-1
\Problem name: random_problem.lp

Minimize
 obj: - 262 x0 - 131 x1 - 88 x2 - 44 x3 - 732 x4 - 366 x5 + 206 x6 + 103 x7
      + 218 x8 + 109 x9 - 856 x10 - 428 x11 - 1290 x12 - 645 x13 + [ 696 x0^2
      + 696 x0*x1 + 1232 x0*x2 + 616 x0*x3 + 640 x0*x4 + 320 x0*x5 + 1248 x0*x6
      + 624 x0*x7 + 560 x0*x8 + 280 x0*x9 + 1008 x0*x10 + 504 x0*x11
      + 336 x0*x12 + 168 x0*x13 + 174 x1^2 + 616 x1*x2 + 308 x1*x3 + 320 x1*x4
      + 160 x1*x5 + 624 x1*x6 + 312 x1*x7 + 280 x1*x8 + 140 x1*x9 + 504 x1*x10
      + 252 x1*x11 + 168 x1*x12 + 84 x1*x13 + 944 x2^2 + 944 x2*x3 + 1008 x2*x4
      + 504 x2*x5 + 1424 x2*x6 + 712 x2*x7 + 672 x2*x8 + 336 x2*x9 + 1024 x2*x10
      + 512 x2*x11 + 128 x2*x12 + 64 x2*x13 + 236 x3^2 + 504 x3*x4 + 252 x3*x5
      + 712 x3*x6 + 356 x3*x7 + 336 x3*x8 + 168 x3*x9 + 512 x3*x10 + 256 x3*x11
      + 64 x3*x12 + 32 x3*x13 + 632 x4^2 + 632 x4*x5 + 768 x4*x6 + 384 x4*x7
      + 400 x4*x8 + 200 x4*x9 + 400 x4*x10 + 200 x4*x11 + 192 x4*x12 + 96 x4*x13
      + 158 x5^2 + 384 x5*x6 + 192 x5*x7 + 200 x5*x8 + 100 x5*x9 + 200 x5*x10
      + 100 x5*x11 + 96 x5*x12 + 48 x5*x13 + 984 x6^2 + 984 x6*x7 + 560 x6*x8
      + 280 x6*x9 + 1472 x6*x10 + 736 x6*x11 + 640 x6*x12 + 320 x6*x13
      + 246 x7^2 + 280 x7*x8 + 140 x7*x9 + 736 x7*x10 + 368 x7*x11 + 320 x7*x12
      + 160 x7*x13 + 496 x8^2 + 496 x8*x9 + 1040 x8*x10 + 520 x8*x11
      - 368 x8*x12 - 184 x8*x13 + 124 x9^2 + 520 x9*x10 + 260 x9*x11
      - 184 x9*x12 - 92 x9*x13 + 3232 x10^2 + 3232 x10*x11 + 992 x10*x12
      + 496 x10*x13 + 808 x11^2 + 496 x11*x12 + 248 x11*x13 + 2080 x12^2
      + 2080 x12*x13 + 520 x13^2 ]/2
Subject To
 c0: 2 x0 + x1 + 2 x2 + x3 + 2 x4 + x5 + 2 x6 + x7 + 2 x8 + x9 + 2 x10 + x11
     + 2 x12 + x13 = 3

Bounds
 0 <= x0 <= 1
 0 <= x1 <= 1
 0 <= x2 <= 1
 0 <= x3 <= 1
 0 <= x4 <= 1
 0 <= x5 <= 1
 0 <= x6 <= 1
 0 <= x7 <= 1
 0 <= x8 <= 1
 0 <= x9 <= 1
 0 <= x10 <= 1
 0 <= x11 <= 1
 0 <= x12 <= 1
 0 <= x13 <= 1

Binaries
 x0 x1 x2 x3 x4 x5 x6 x7 x8 x9 x10 x11 x12 x13
End
